Route #1: 37 62 26 10 64 44 
Route #2: 51 34 13 56 31 45 57 53 
Route #3: 42 39 29 3 21 9 49 
Route #4: 32 58 40 8 65 33 52 
Route #5: 17 54 50 61 2 6 
Route #6: 24 12 36 46 63 16 48 
Route #7: 47 28 14 15 60 4 5 27 
Route #8: 55 20 23 18 1 41 
Route #9: 7 30 25 59 22 43 35 19 38 11 
cost 1536.38